p cnf 284 348
-1 -2 -3 -4 43 91 -5 33 38 80 250 -251 -252 -253 -254 -260 -270 -271 -272 -273 -278 -281 -282 -283 -284 0 
-1 -6 115 143 251 -250 -252 -253 -254 -260 -270 -271 -272 -273 -278 -281 -282 -283 -284 0 
-1 -6 115 143 252 -250 -251 -253 -254 -260 -270 -271 -272 -273 -278 -281 -282 -283 -284 0 
-1 -6 115 143 253 -250 -251 -252 -254 -260 -270 -271 -272 -273 -278 -281 -282 -283 -284 0 
-7 -4 43 91 254 -250 -251 -252 -253 -260 -270 -271 -272 -273 -278 -281 -282 -283 -284 0 
-8 232 -1 254 -250 -251 -252 -253 -260 -270 -271 -272 -273 -278 -281 -282 -283 -284 0 
-9 254 -250 -251 -252 -253 -260 -270 -271 -272 -273 -278 -281 -282 -283 -284 0 
-10 254 -250 -251 -252 -253 -260 -270 -271 -272 -273 -278 -281 -282 -283 -284 0 
-4 43 91 254 -250 -251 -252 -253 -260 -270 -271 -272 -273 -278 -281 -282 -283 -284 0 
-1 254 -250 -251 -252 -253 -260 -270 -271 -272 -273 -278 -281 -282 -283 -284 0 
-11 32 41 83 177 233 254 -250 -251 -252 -253 -260 -270 -271 -272 -273 -278 -281 -282 -283 -284 0 
-12 53 142 254 -250 -251 -252 -253 -260 -270 -271 -272 -273 -278 -281 -282 -283 -284 0 
-13 254 -250 -251 -252 -253 -260 -270 -271 -272 -273 -278 -281 -282 -283 -284 0 
-14 104 112 184 236 242 254 -250 -251 -252 -253 -260 -270 -271 -272 -273 -278 -281 -282 -283 -284 0 
-4 43 91 -15 30 47 52 97 167 168 172 200 203 207 254 -250 -251 -252 -253 -260 -270 -271 -272 -273 -278 -281 -282 -283 -284 0 
-16 121 -4 43 91 254 -250 -251 -252 -253 -260 -270 -271 -272 -273 -278 -281 -282 -283 -284 0 
-17 -4 43 91 254 -250 -251 -252 -253 -260 -270 -271 -272 -273 -278 -281 -282 -283 -284 0 
-18 132 139 254 -250 -251 -252 -253 -260 -270 -271 -272 -273 -278 -281 -282 -283 -284 0 
-12 53 142 254 -250 -251 -252 -253 -260 -270 -271 -272 -273 -278 -281 -282 -283 -284 0 
-7 254 -250 -251 -252 -253 -260 -270 -271 -272 -273 -278 -281 -282 -283 -284 0 
-19 174 254 -250 -251 -252 -253 -260 -270 -271 -272 -273 -278 -281 -282 -283 -284 0 
-20 111 114 190 239 254 -250 -251 -252 -253 -260 -270 -271 -272 -273 -278 -281 -282 -283 -284 0 
-21 124 254 -250 -251 -252 -253 -260 -270 -271 -272 -273 -278 -281 -282 -283 -284 0 
-22 44 254 -250 -251 -252 -253 -260 -270 -271 -272 -273 -278 -281 -282 -283 -284 0 
-23 37 186 243 254 -250 -251 -252 -253 -260 -270 -271 -272 -273 -278 -281 -282 -283 -284 0 
-24 63 109 110 123 135 238 -8 232 254 -250 -251 -252 -253 -260 -270 -271 -272 -273 -278 -281 -282 -283 -284 0 
-25 241 -26 99 194 221 244 254 -250 -251 -252 -253 -260 -270 -271 -272 -273 -278 -281 -282 -283 -284 0 
-27 36 73 74 154 254 -250 -251 -252 -253 -260 -270 -271 -272 -273 -278 -281 -282 -283 -284 0 
-28 66 75 103 195 254 -250 -251 -252 -253 -260 -270 -271 -272 -273 -278 -281 -282 -283 -284 0 
-29 87 254 -250 -251 -252 -253 -260 -270 -271 -272 -273 -278 -281 -282 -283 -284 0 
-4 43 91 -30 15 47 52 97 167 168 172 200 203 207 254 -250 -251 -252 -253 -260 -270 -271 -272 -273 -278 -281 -282 -283 -284 0 
-31 -1 254 -250 -251 -252 -253 -260 -270 -271 -272 -273 -278 -281 -282 -283 -284 0 
-32 11 41 83 177 233 -33 5 38 80 254 -250 -251 -252 -253 -260 -270 -271 -272 -273 -278 -281 -282 -283 -284 0 
-34 254 -250 -251 -252 -253 -260 -270 -271 -272 -273 -278 -281 -282 -283 -284 0 
-35 -4 43 91 254 -250 -251 -252 -253 -260 -270 -271 -272 -273 -278 -281 -282 -283 -284 0 
-36 27 73 74 154 254 -250 -251 -252 -253 -260 -270 -271 -272 -273 -278 -281 -282 -283 -284 0 
-37 23 186 243 -38 5 33 80 254 -250 -251 -252 -253 -260 -270 -271 -272 -273 -278 -281 -282 -283 -284 0 
-39 -40 131 166 182 197 215 237 254 -250 -251 -252 -253 -260 -270 -271 -272 -273 -278 -281 -282 -283 -284 0 
-13 -4 43 91 254 -250 -251 -252 -253 -260 -270 -271 -272 -273 -278 -281 -282 -283 -284 0 
-29 87 -4 43 91 254 -250 -251 -252 -253 -260 -270 -271 -272 -273 -278 -281 -282 -283 -284 0 
-41 11 32 83 177 233 -42 -4 43 91 254 -250 -251 -252 -253 -260 -270 -271 -272 -273 -278 -281 -282 -283 -284 0 
-1 -43 4 91 254 -250 -251 -252 -253 -260 -270 -271 -272 -273 -278 -281 -282 -283 -284 0 
-44 22 255 -256 -280 0 
-45 61 -46 62 179 -47 15 30 52 97 167 168 172 200 203 207 254 -250 -251 -252 -253 -260 -270 -271 -272 -273 -278 -281 -282 -283 -284 0 
-48 70 256 -255 -280 0 
-49 133 -50 -51 56 82 254 -250 -251 -252 -253 -260 -270 -271 -272 -273 -278 -281 -282 -283 -284 0 
-12 53 142 254 -250 -251 -252 -253 -260 -270 -271 -272 -273 -278 -281 -282 -283 -284 0 
-10 -4 43 91 -52 15 30 47 97 167 168 172 200 203 207 254 -250 -251 -252 -253 -260 -270 -271 -272 -273 -278 -281 -282 -283 -284 0 
-53 12 142 254 -250 -251 -252 -253 -260 -270 -271 -272 -273 -278 -281 -282 -283 -284 0 
-54 254 -250 -251 -252 -253 -260 -270 -271 -272 -273 -278 -281 -282 -283 -284 0 
-8 232 254 -250 -251 -252 -253 -260 -270 -271 -272 -273 -278 -281 -282 -283 -284 0 
-55 127 206 240 -56 51 82 254 -250 -251 -252 -253 -260 -270 -271 -272 -273 -278 -281 -282 -283 -284 0 
-57 92 126 176 -58 254 -250 -251 -252 -253 -260 -270 -271 -272 -273 -278 -281 -282 -283 -284 0 
-59 100 148 153 -60 68 229 254 -250 -251 -252 -253 -260 -270 -271 -272 -273 -278 -281 -282 -283 -284 0 
-61 45 -4 43 91 254 -250 -251 -252 -253 -260 -270 -271 -272 -273 -278 -281 -282 -283 -284 0 
-62 46 179 254 -250 -251 -252 -253 -260 -270 -271 -272 -273 -278 -281 -282 -283 -284 0 
-63 24 109 110 123 135 238 -53 12 142 254 -250 -251 -252 -253 -260 -270 -271 -272 -273 -278 -281 -282 -283 -284 0 
-64 -65 -4 43 91 254 -250 -251 -252 -253 -260 -270 -271 -272 -273 -278 -281 -282 -283 -284 0 
-66 28 75 103 195 254 -250 -251 -252 -253 -260 -270 -271 -272 -273 -278 -281 -282 -283 -284 0 
-67 94 -68 60 229 254 -250 -251 -252 -253 -260 -270 -271 -272 -273 -278 -281 -282 -283 -284 0 
-69 -6 115 143 257 -250 -251 -252 -253 -254 -260 -270 -271 -272 -273 -278 -281 -282 -283 -284 0 
-70 48 -71 -72 193 -73 27 36 74 154 258 -250 -251 -252 -253 -254 -260 -270 -271 -272 -273 -278 -281 -282 -283 -284 -13 0 
-70 48 -71 -72 193 -74 27 36 73 154 259 -250 -251 -252 -253 -254 -260 -270 -271 -272 -273 -278 -281 -282 -283 -284 0 
-12 53 142 254 -250 -251 -252 -253 -260 -270 -271 -272 -273 -278 -281 -282 -283 -284 0 
-75 28 66 103 195 -17 -4 43 91 254 -250 -251 -252 -253 -260 -270 -271 -272 -273 -278 -281 -282 -283 -284 0 
-76 89 -1 254 -250 -251 -252 -253 -260 -270 -271 -272 -273 -278 -281 -282 -283 -284 0 
-77 79 138 254 -250 -251 -252 -253 -260 -270 -271 -272 -273 -278 -281 -282 -283 -284 0 
-78 -4 43 91 254 -250 -251 -252 -253 -260 -270 -271 -272 -273 -278 -281 -282 -283 -284 0 
-79 77 138 254 -250 -251 -252 -253 -260 -270 -271 -272 -273 -278 -281 -282 -283 -284 0 
-80 5 33 38 -4 43 91 -81 254 -250 -251 -252 -253 -260 -270 -271 -272 -273 -278 -281 -282 -283 -284 0 
-1 -6 115 143 260 -250 -251 -252 -253 -254 -270 -271 -272 -273 -278 -281 -282 -283 -284 0 
-12 53 142 254 -250 -251 -252 -253 -260 -270 -271 -272 -273 -278 -281 -282 -283 -284 0 
-82 51 56 254 -250 -251 -252 -253 -260 -270 -271 -272 -273 -278 -281 -282 -283 -284 0 
-61 45 -83 11 32 41 177 233 -84 -1 -43 4 91 254 -250 -251 -252 -253 -260 -270 -271 -272 -273 -278 -281 -282 -283 -284 0 
-85 234 -4 43 91 254 -250 -251 -252 -253 -260 -270 -271 -272 -273 -278 -281 -282 -283 -284 0 
-86 107 254 -250 -251 -252 -253 -260 -270 -271 -272 -273 -278 -281 -282 -283 -284 0 
-1 -87 29 -88 254 -250 -251 -252 -253 -260 -270 -271 -272 -273 -278 -281 -282 -283 -284 0 
-4 43 91 -3 254 -250 -251 -252 -253 -260 -270 -271 -272 -273 -278 -281 -282 -283 -284 0 
-89 76 -4 43 91 -3 254 -250 -251 -252 -253 -260 -270 -271 -272 -273 -278 -281 -282 -283 -284 0 
-69 -4 43 91 254 -250 -251 -252 -253 -260 -270 -271 -272 -273 -278 -281 -282 -283 -284 0 
-61 45 -1 -43 4 91 254 -250 -251 -252 -253 -260 -270 -271 -272 -273 -278 -281 -282 -283 -284 0 
-22 44 -2 261 -250 -251 -252 -253 -254 -260 -270 -271 -272 -273 -278 -281 -282 -283 -284 -120 0 
-90 254 -250 -251 -252 -253 -260 -270 -271 -272 -273 -278 -281 -282 -283 -284 0 
-80 5 33 38 -91 4 43 254 -250 -251 -252 -253 -260 -270 -271 -272 -273 -278 -281 -282 -283 -284 0 
-92 57 126 176 -12 53 142 254 -250 -251 -252 -253 -260 -270 -271 -272 -273 -278 -281 -282 -283 -284 0 
-93 -94 67 -32 11 41 83 177 233 -95 128 140 173 180 198 212 220 223 254 -250 -251 -252 -253 -260 -270 -271 -272 -273 -278 -281 -282 -283 -284 0 
-96 98 235 -4 43 91 -97 15 30 47 52 167 168 172 200 203 207 254 -250 -251 -252 -253 -260 -270 -271 -272 -273 -278 -281 -282 -283 -284 0 
-98 96 235 -4 43 91 254 -250 -251 -252 -253 -260 -270 -271 -272 -273 -278 -281 -282 -283 -284 0 
-38 5 33 80 -4 43 91 254 -250 -251 -252 -253 -260 -270 -271 -272 -273 -278 -281 -282 -283 -284 0 
-99 26 194 221 244 254 -250 -251 -252 -253 -260 -270 -271 -272 -273 -278 -281 -282 -283 -284 0 
-100 59 148 153 -4 43 91 -3 254 -250 -251 -252 -253 -260 -270 -271 -272 -273 -278 -281 -282 -283 -284 0 
-101 -4 43 91 254 -250 -251 -252 -253 -260 -270 -271 -272 -273 -278 -281 -282 -283 -284 0 
-102 108 144 165 245 254 -250 -251 -252 -253 -260 -270 -271 -272 -273 -278 -281 -282 -283 -284 0 
-103 28 66 75 195 -104 14 112 184 236 242 254 -250 -251 -252 -253 -260 -270 -271 -272 -273 -278 -281 -282 -283 -284 0 
-105 -4 43 91 254 -250 -251 -252 -253 -260 -270 -271 -272 -273 -278 -281 -282 -283 -284 0 
-1 -4 43 91 -87 29 -88 254 -250 -251 -252 -253 -260 -270 -271 -272 -273 -278 -281 -282 -283 -284 0 
-103 28 66 75 195 -14 104 112 184 236 242 254 -250 -251 -252 -253 -260 -270 -271 -272 -273 -278 -281 -282 -283 -284 0 
-106 130 209 210 211 231 254 -250 -251 -252 -253 -260 -270 -271 -272 -273 -278 -281 -282 -283 -284 0 
-21 124 -107 86 254 -250 -251 -252 -253 -260 -270 -271 -272 -273 -278 -281 -282 -283 -284 0 
-108 102 144 165 245 254 -250 -251 -252 -253 -260 -270 -271 -272 -273 -278 -281 -282 -283 -284 0 
-29 87 -1 -4 43 91 -97 15 30 47 52 167 168 172 200 203 207 254 -250 -251 -252 -253 -260 -270 -271 -272 -273 -278 -281 -282 -283 -284 0 
-1 -4 43 91 -3 -2 250 -251 -252 -253 -254 -260 -270 -271 -272 -273 -278 -281 -282 -283 -284 0 
-1 -4 43 91 -3 251 -250 -252 -253 -254 -260 -270 -271 -272 -273 -278 -281 -282 -283 -284 0 
-12 53 142 254 -250 -251 -252 -253 -260 -270 -271 -272 -273 -278 -281 -282 -283 -284 0 
-109 24 63 110 123 135 238 -12 53 142 254 -250 -251 -252 -253 -260 -270 -271 -272 -273 -278 -281 -282 -283 -284 0 
-61 45 -110 24 63 109 123 135 238 -1 254 -250 -251 -252 -253 -260 -270 -271 -272 -273 -278 -281 -282 -283 -284 0 
-111 20 114 190 239 254 -250 -251 -252 -253 -260 -270 -271 -272 -273 -278 -281 -282 -283 -284 0 
-112 14 104 184 236 242 254 -250 -251 -252 -253 -260 -270 -271 -272 -273 -278 -281 -282 -283 -284 0 
-1 -4 43 91 254 -250 -251 -252 -253 -260 -270 -271 -272 -273 -278 -281 -282 -283 -284 0 
-113 156 157 226 254 -250 -251 -252 -253 -260 -270 -271 -272 -273 -278 -281 -282 -283 -284 0 
-114 20 111 190 239 259 -250 -251 -252 -253 -254 -260 -270 -271 -272 -273 -278 -281 -282 -283 -284 0 
-13 -115 6 143 262 -250 -251 -252 -253 -254 -260 -270 -271 -272 -273 -278 -281 -282 -283 -284 -188 0 
-116 -117 257 -250 -251 -252 -253 -254 -260 -270 -271 -272 -273 -278 -281 -282 -283 -284 0 
-109 24 63 110 123 135 238 263 -250 -251 -252 -253 -254 -260 -270 -271 -272 -273 -278 -281 -282 -283 -284 -57 -92 -126 -176 0 
-114 20 111 190 239 264 -250 -251 -252 -253 -254 -260 -270 -271 -272 -273 -278 -281 -282 -283 -284 -116 0 
-12 53 142 254 -250 -251 -252 -253 -260 -270 -271 -272 -273 -278 -281 -282 -283 -284 0 
-118 146 -119 254 -250 -251 -252 -253 -260 -270 -271 -272 -273 -278 -281 -282 -283 -284 0 
-120 -10 254 -250 -251 -252 -253 -260 -270 -271 -272 -273 -278 -281 -282 -283 -284 0 
-121 16 -1 254 -250 -251 -252 -253 -260 -270 -271 -272 -273 -278 -281 -282 -283 -284 0 
-122 247 265 -250 -251 -252 -253 -254 -260 -270 -271 -272 -273 -278 -281 -282 -283 -284 -28 -66 -75 -103 -195 0 
-122 247 266 -250 -251 -252 -253 -254 -260 -270 -271 -272 -273 -278 -281 -282 -283 -284 -85 -234 0 
-123 24 63 109 110 135 238 262 -250 -251 -252 -253 -254 -260 -270 -271 -272 -273 -278 -281 -282 -283 -284 -188 0 
-11 32 41 83 177 233 258 -250 -251 -252 -253 -254 -260 -270 -271 -272 -273 -278 -281 -282 -283 -284 -13 0 
-122 247 267 -250 -251 -252 -253 -254 -260 -270 -271 -272 -273 -278 -281 -282 -283 -284 -246 0 
-122 247 259 -250 -251 -252 -253 -254 -260 -270 -271 -272 -273 -278 -281 -282 -283 -284 0 
-123 24 63 109 110 135 238 264 -250 -251 -252 -253 -254 -260 -270 -271 -272 -273 -278 -281 -282 -283 -284 -116 0 
-123 24 63 109 110 135 238 268 -250 -251 -252 -253 -254 -260 -270 -271 -272 -273 -278 -281 -282 -283 -284 -141 0 
-11 32 41 83 177 233 -4 43 91 269 -250 -251 -252 -253 -254 -260 -270 -271 -272 -273 -278 -281 -282 -283 -284 0 
-124 21 -81 254 -250 -251 -252 -253 -260 -270 -271 -272 -273 -278 -281 -282 -283 -284 0 
-14 104 112 184 236 242 254 -250 -251 -252 -253 -260 -270 -271 -272 -273 -278 -281 -282 -283 -284 0 
-93 -125 -126 57 92 176 -99 26 194 221 244 254 -250 -251 -252 -253 -260 -270 -271 -272 -273 -278 -281 -282 -283 -284 0 
-127 55 206 240 -128 95 140 173 180 198 212 220 223 254 -250 -251 -252 -253 -260 -270 -271 -272 -273 -278 -281 -282 -283 -284 0 
-129 -130 106 209 210 211 231 254 -250 -251 -252 -253 -260 -270 -271 -272 -273 -278 -281 -282 -283 -284 0 
-131 40 166 182 197 215 237 254 -250 -251 -252 -253 -260 -270 -271 -272 -273 -278 -281 -282 -283 -284 0 
-12 53 142 254 -250 -251 -252 -253 -260 -270 -271 -272 -273 -278 -281 -282 -283 -284 0 
-132 18 139 254 -250 -251 -252 -253 -260 -270 -271 -272 -273 -278 -281 -282 -283 -284 0 
-133 49 254 -250 -251 -252 -253 -260 -270 -271 -272 -273 -278 -281 -282 -283 -284 0 
-46 62 179 254 -250 -251 -252 -253 -260 -270 -271 -272 -273 -278 -281 -282 -283 -284 0 
-24 63 109 110 123 135 238 -134 149 189 254 -250 -251 -252 -253 -260 -270 -271 -272 -273 -278 -281 -282 -283 -284 0 
-135 24 63 109 110 123 238 -53 12 142 254 -250 -251 -252 -253 -260 -270 -271 -272 -273 -278 -281 -282 -283 -284 0 
-136 254 -250 -251 -252 -253 -260 -270 -271 -272 -273 -278 -281 -282 -283 -284 0 
-137 181 214 216 254 -250 -251 -252 -253 -260 -270 -271 -272 -273 -278 -281 -282 -283 -284 0 
-138 77 79 254 -250 -251 -252 -253 -260 -270 -271 -272 -273 -278 -281 -282 -283 -284 0 
-139 18 132 254 -250 -251 -252 -253 -260 -270 -271 -272 -273 -278 -281 -282 -283 -284 0 
-53 12 142 254 -250 -251 -252 -253 -260 -270 -271 -272 -273 -278 -281 -282 -283 -284 0 
-140 95 128 173 180 198 212 220 223 254 -250 -251 -252 -253 -260 -270 -271 -272 -273 -278 -281 -282 -283 -284 0 
-13 -141 -115 6 143 254 -250 -251 -252 -253 -260 -270 -271 -272 -273 -278 -281 -282 -283 -284 0 
-142 12 53 254 -250 -251 -252 -253 -260 -270 -271 -272 -273 -278 -281 -282 -283 -284 0 
-143 6 115 254 -250 -251 -252 -253 -260 -270 -271 -272 -273 -278 -281 -282 -283 -284 0 
-96 98 235 -4 43 91 -81 254 -250 -251 -252 -253 -260 -270 -271 -272 -273 -278 -281 -282 -283 -284 0 
-1 -2 -3 -4 43 91 -5 33 38 80 270 -250 -251 -252 -253 -254 -260 -271 -272 -273 -278 -281 -282 -283 -284 0 
-144 102 108 165 245 271 -250 -251 -252 -253 -254 -260 -270 -272 -273 -278 -281 -282 -283 -284 0 
-1 -2 -3 -4 43 91 -145 155 164 169 170 191 202 204 219 227 228 230 252 -250 -251 -253 -254 -260 -270 -271 -272 -273 -278 -281 -282 -283 -284 0 
-6 115 143 251 -250 -252 -253 -254 -260 -270 -271 -272 -273 -278 -281 -282 -283 -284 0 
-146 118 -147 254 -250 -251 -252 -253 -260 -270 -271 -272 -273 -278 -281 -282 -283 -284 0 
-148 59 100 153 -2 267 -250 -251 -252 -253 -254 -260 -270 -271 -272 -273 -278 -281 -282 -283 -284 -246 0 
-148 59 100 153 -2 266 -250 -251 -252 -253 -254 -260 -270 -271 -272 -273 -278 -281 -282 -283 -284 -85 -234 0 
-148 59 100 153 -2 265 -250 -251 -252 -253 -254 -260 -270 -271 -272 -273 -278 -281 -282 -283 -284 -28 -66 -75 -103 -195 0 
-149 134 189 254 -250 -251 -252 -253 -260 -270 -271 -272 -273 -278 -281 -282 -283 -284 0 
-150 -61 45 254 -250 -251 -252 -253 -260 -270 -271 -272 -273 -278 -281 -282 -283 -284 0 
-141 254 -250 -251 -252 -253 -260 -270 -271 -272 -273 -278 -281 -282 -283 -284 0 
-151 272 -250 -251 -252 -253 -254 -260 -270 -271 -273 -278 -281 -282 -283 -284 0 
-53 12 142 254 -250 -251 -252 -253 -260 -270 -271 -272 -273 -278 -281 -282 -283 -284 0 
-152 250 -251 -252 -253 -254 -260 -270 -271 -272 -273 -278 -281 -282 -283 -284 0 
-153 59 100 148 -4 43 91 254 -250 -251 -252 -253 -260 -270 -271 -272 -273 -278 -281 -282 -283 -284 0 
-154 27 36 73 74 254 -250 -251 -252 -253 -260 -270 -271 -272 -273 -278 -281 -282 -283 -284 0 
-4 43 91 -155 145 164 169 170 191 202 204 219 227 228 230 254 -250 -251 -252 -253 -260 -270 -271 -272 -273 -278 -281 -282 -283 -284 0 
-4 43 91 -156 113 157 226 254 -250 -251 -252 -253 -260 -270 -271 -272 -273 -278 -281 -282 -283 -284 0 
-4 43 91 -157 113 156 226 254 -250 -251 -252 -253 -260 -270 -271 -272 -273 -278 -281 -282 -283 -284 0 
-158 162 264 -250 -251 -252 -253 -254 -260 -270 -271 -272 -273 -278 -281 -282 -283 -284 -116 0 
-159 258 -250 -251 -252 -253 -254 -260 -270 -271 -272 -273 -278 -281 -282 -283 -284 -13 0 
-160 -2 259 -250 -251 -252 -253 -254 -260 -270 -271 -272 -273 -278 -281 -282 -283 -284 0 
-161 -2 268 -250 -251 -252 -253 -254 -260 -270 -271 -272 -273 -278 -281 -282 -283 -284 -141 0 
-162 158 254 -250 -251 -252 -253 -260 -270 -271 -272 -273 -278 -281 -282 -283 -284 0 
-163 -29 87 254 -250 -251 -252 -253 -260 -270 -271 -272 -273 -278 -281 -282 -283 -284 0 
-1 -4 43 91 -3 273 -250 -251 -252 -253 -254 -260 -270 -271 -272 -278 -281 -282 -283 -284 0 
-1 -4 43 91 -3 252 -250 -251 -253 -254 -260 -270 -271 -272 -273 -278 -281 -282 -283 -284 0 
-12 53 142 254 -250 -251 -252 -253 -260 -270 -271 -272 -273 -278 -281 -282 -283 -284 0 
-10 -4 43 91 -164 145 155 169 170 191 202 204 219 227 228 230 254 -250 -251 -252 -253 -260 -270 -271 -272 -273 -278 -281 -282 -283 -284 0 
-10 -4 43 91 -156 113 157 226 254 -250 -251 -252 -253 -260 -270 -271 -272 -273 -278 -281 -282 -283 -284 0 
-61 45 -165 102 108 144 245 254 -250 -251 -252 -253 -260 -270 -271 -272 -273 -278 -281 -282 -283 -284 0 
-166 40 131 182 197 215 237 254 -250 -251 -252 -253 -260 -270 -271 -272 -273 -278 -281 -282 -283 -284 0 
-33 5 38 80 -4 43 91 -52 15 30 47 97 167 168 172 200 203 207 254 -250 -251 -252 -253 -260 -270 -271 -272 -273 -278 -281 -282 -283 -284 0 
-10 -43 4 91 -167 15 30 47 52 97 168 172 200 203 207 254 -250 -251 -252 -253 -260 -270 -271 -272 -273 -278 -281 -282 -283 -284 0 
-1 -43 4 91 -168 15 30 47 52 97 167 172 200 203 207 254 -250 -251 -252 -253 -260 -270 -271 -272 -273 -278 -281 -282 -283 -284 0 
-10 -4 43 91 254 -250 -251 -252 -253 -260 -270 -271 -272 -273 -278 -281 -282 -283 -284 0 
-1 -43 4 91 -169 145 155 164 170 191 202 204 219 227 228 230 254 -250 -251 -252 -253 -260 -270 -271 -272 -273 -278 -281 -282 -283 -284 0 
-119 -43 4 91 -170 145 155 164 169 191 202 204 219 227 228 230 254 -250 -251 -252 -253 -260 -270 -271 -272 -273 -278 -281 -282 -283 -284 0 
-171 -143 6 115 254 -250 -251 -252 -253 -260 -270 -271 -272 -273 -278 -281 -282 -283 -284 0 
-96 98 235 -43 4 91 -172 15 30 47 52 97 167 168 200 203 207 254 -250 -251 -252 -253 -260 -270 -271 -272 -273 -278 -281 -282 -283 -284 0 
-10 -43 4 91 -172 15 30 47 52 97 167 168 200 203 207 254 -250 -251 -252 -253 -260 -270 -271 -272 -273 -278 -281 -282 -283 -284 0 
-29 87 -1 -4 43 91 -47 15 30 52 97 167 168 172 200 203 207 -38 5 33 80 254 -250 -251 -252 -253 -260 -270 -271 -272 -273 -278 -281 -282 -283 -284 0 
-96 98 235 -6 115 143 254 -250 -251 -252 -253 -260 -270 -271 -272 -273 -278 -281 -282 -283 -284 0 
-2 -115 6 143 274 -275 -276 -277 0 
-2 -115 6 143 275 -274 -276 -277 0 
-2 -115 6 143 276 -274 -275 -277 0 
-2 -115 6 143 277 -274 -275 -276 0 
-2 -115 6 143 278 -250 -251 -252 -253 -254 -260 -270 -271 -272 -273 -281 -282 -283 -284 0 
-173 95 128 140 180 198 212 220 223 254 -250 -251 -252 -253 -260 -270 -271 -272 -273 -278 -281 -282 -283 -284 0 
-2 -115 6 143 270 -250 -251 -252 -253 -254 -260 -271 -272 -273 -278 -281 -282 -283 -284 0 
-174 19 -175 -176 57 92 126 -177 11 32 41 83 233 -178 279 -250 -251 -252 -253 -254 -260 -270 -271 -272 -273 -278 -281 -282 -283 -284 -118 -146 0 
-179 46 62 -32 11 41 83 177 233 -180 95 128 140 173 198 212 220 223 254 -250 -251 -252 -253 -260 -270 -271 -272 -273 -278 -281 -282 -283 -284 0 
-1 -87 29 -88 -4 43 91 254 -250 -251 -252 -253 -260 -270 -271 -272 -273 -278 -281 -282 -283 -284 0 
-181 137 214 216 254 -250 -251 -252 -253 -260 -270 -271 -272 -273 -278 -281 -282 -283 -284 0 
-182 40 131 166 197 215 237 254 -250 -251 -252 -253 -260 -270 -271 -272 -273 -278 -281 -282 -283 -284 0 
-183 254 -250 -251 -252 -253 -260 -270 -271 -272 -273 -278 -281 -282 -283 -284 0 
-119 254 -250 -251 -252 -253 -260 -270 -271 -272 -273 -278 -281 -282 -283 -284 0 
-184 14 104 112 236 242 254 -250 -251 -252 -253 -260 -270 -271 -272 -273 -278 -281 -282 -283 -284 0 
-121 16 254 -250 -251 -252 -253 -260 -270 -271 -272 -273 -278 -281 -282 -283 -284 0 
-14 104 112 184 236 242 254 -250 -251 -252 -253 -260 -270 -271 -272 -273 -278 -281 -282 -283 -284 0 
-185 -4 43 91 254 -250 -251 -252 -253 -260 -270 -271 -272 -273 -278 -281 -282 -283 -284 0 
-177 11 32 41 83 233 254 -250 -251 -252 -253 -260 -270 -271 -272 -273 -278 -281 -282 -283 -284 0 
-174 19 254 -250 -251 -252 -253 -260 -270 -271 -272 -273 -278 -281 -282 -283 -284 0 
-186 23 37 243 254 -250 -251 -252 -253 -260 -270 -271 -272 -273 -278 -281 -282 -283 -284 0 
-187 199 254 -250 -251 -252 -253 -260 -270 -271 -272 -273 -278 -281 -282 -283 -284 0 
-188 -4 43 91 254 -250 -251 -252 -253 -260 -270 -271 -272 -273 -278 -281 -282 -283 -284 0 
-108 102 144 165 245 254 -250 -251 -252 -253 -260 -270 -271 -272 -273 -278 -281 -282 -283 -284 0 
-189 134 149 254 -250 -251 -252 -253 -260 -270 -271 -272 -273 -278 -281 -282 -283 -284 0 
-190 20 111 114 239 254 -250 -251 -252 -253 -260 -270 -271 -272 -273 -278 -281 -282 -283 -284 0 
-4 43 91 -191 145 155 164 169 170 202 204 219 227 228 230 254 -250 -251 -252 -253 -260 -270 -271 -272 -273 -278 -281 -282 -283 -284 0 
-192 -4 43 91 254 -250 -251 -252 -253 -260 -270 -271 -272 -273 -278 -281 -282 -283 -284 0 
-193 72 -194 26 99 221 244 254 -250 -251 -252 -253 -260 -270 -271 -272 -273 -278 -281 -282 -283 -284 0 
-195 28 66 75 103 254 -250 -251 -252 -253 -260 -270 -271 -272 -273 -278 -281 -282 -283 -284 0 
-196 -43 4 91 254 -250 -251 -252 -253 -260 -270 -271 -272 -273 -278 -281 -282 -283 -284 0 
-124 21 254 -250 -251 -252 -253 -260 -270 -271 -272 -273 -278 -281 -282 -283 -284 0 
-197 40 131 166 182 215 237 254 -250 -251 -252 -253 -260 -270 -271 -272 -273 -278 -281 -282 -283 -284 0 
-198 95 128 140 173 180 212 220 223 254 -250 -251 -252 -253 -260 -270 -271 -272 -273 -278 -281 -282 -283 -284 0 
-199 187 254 -250 -251 -252 -253 -260 -270 -271 -272 -273 -278 -281 -282 -283 -284 0 
-61 45 -144 102 108 165 245 254 -250 -251 -252 -253 -260 -270 -271 -272 -273 -278 -281 -282 -283 -284 0 
-119 -43 4 91 -200 15 30 47 52 97 167 168 172 203 207 254 -250 -251 -252 -253 -260 -270 -271 -272 -273 -278 -281 -282 -283 -284 0 
-4 43 91 -201 225 -202 145 155 164 169 170 191 204 219 227 228 230 254 -250 -251 -252 -253 -260 -270 -271 -272 -273 -278 -281 -282 -283 -284 0 
-140 95 128 173 180 198 212 220 223 254 -250 -251 -252 -253 -260 -270 -271 -272 -273 -278 -281 -282 -283 -284 0 
-61 45 -165 102 108 144 245 254 -250 -251 -252 -253 -260 -270 -271 -272 -273 -278 -281 -282 -283 -284 0 
-1 -43 4 91 -203 15 30 47 52 97 167 168 172 200 207 254 -250 -251 -252 -253 -260 -270 -271 -272 -273 -278 -281 -282 -283 -284 0 
-10 -4 43 91 -156 113 157 226 254 -250 -251 -252 -253 -260 -270 -271 -272 -273 -278 -281 -282 -283 -284 0 
-10 -43 4 91 -204 145 155 164 169 170 191 202 219 227 228 230 254 -250 -251 -252 -253 -260 -270 -271 -272 -273 -278 -281 -282 -283 -284 0 
-205 -43 4 91 -204 145 155 164 169 170 191 202 219 227 228 230 254 -250 -251 -252 -253 -260 -270 -271 -272 -273 -278 -281 -282 -283 -284 0 
-26 99 194 221 244 254 -250 -251 -252 -253 -260 -270 -271 -272 -273 -278 -281 -282 -283 -284 0 
-206 55 127 240 -4 43 91 254 -250 -251 -252 -253 -260 -270 -271 -272 -273 -278 -281 -282 -283 -284 0 
-10 -43 4 91 254 -250 -251 -252 -253 -260 -270 -271 -272 -273 -278 -281 -282 -283 -284 0 
-10 -143 6 115 254 -250 -251 -252 -253 -260 -270 -271 -272 -273 -278 -281 -282 -283 -284 0 
-119 -87 29 -88 -43 4 91 -207 15 30 47 52 97 167 168 172 200 203 254 -250 -251 -252 -253 -260 -270 -271 -272 -273 -278 -281 -282 -283 -284 0 
-61 45 -144 102 108 165 245 254 -250 -251 -252 -253 -260 -270 -271 -272 -273 -278 -281 -282 -283 -284 0 
-68 60 229 254 -250 -251 -252 -253 -260 -270 -271 -272 -273 -278 -281 -282 -283 -284 0 
-208 213 222 254 -250 -251 -252 -253 -260 -270 -271 -272 -273 -278 -281 -282 -283 -284 0 
-26 99 194 221 244 254 -250 -251 -252 -253 -260 -270 -271 -272 -273 -278 -281 -282 -283 -284 0 
-209 106 130 210 211 231 254 -250 -251 -252 -253 -260 -270 -271 -272 -273 -278 -281 -282 -283 -284 0 
-4 43 91 -81 254 -250 -251 -252 -253 -260 -270 -271 -272 -273 -278 -281 -282 -283 -284 0 
-89 76 -4 43 91 -81 254 -250 -251 -252 -253 -260 -270 -271 -272 -273 -278 -281 -282 -283 -284 0 
-210 106 130 209 211 231 254 -250 -251 -252 -253 -260 -270 -271 -272 -273 -278 -281 -282 -283 -284 0 
-93 -94 67 -32 11 41 83 177 233 -95 128 140 173 180 198 212 220 223 254 -250 -251 -252 -253 -260 -270 -271 -272 -273 -278 -281 -282 -283 -284 0 
-79 77 138 254 -250 -251 -252 -253 -260 -270 -271 -272 -273 -278 -281 -282 -283 -284 0 
-162 158 254 -250 -251 -252 -253 -260 -270 -271 -272 -273 -278 -281 -282 -283 -284 0 
-100 59 148 153 -4 43 91 -81 254 -250 -251 -252 -253 -260 -270 -271 -272 -273 -278 -281 -282 -283 -284 0 
-103 28 66 75 195 -104 14 112 184 236 242 254 -250 -251 -252 -253 -260 -270 -271 -272 -273 -278 -281 -282 -283 -284 0 
-108 102 144 165 245 254 -250 -251 -252 -253 -260 -270 -271 -272 -273 -278 -281 -282 -283 -284 0 
-119 -87 29 -88 -43 4 91 254 -250 -251 -252 -253 -260 -270 -271 -272 -273 -278 -281 -282 -283 -284 0 
-211 106 130 209 210 231 254 -250 -251 -252 -253 -260 -270 -271 -272 -273 -278 -281 -282 -283 -284 0 
-212 95 128 140 173 180 198 220 223 254 -250 -251 -252 -253 -260 -270 -271 -272 -273 -278 -281 -282 -283 -284 0 
-213 208 222 254 -250 -251 -252 -253 -260 -270 -271 -272 -273 -278 -281 -282 -283 -284 0 
-214 137 181 216 254 -250 -251 -252 -253 -260 -270 -271 -272 -273 -278 -281 -282 -283 -284 0 
-215 40 131 166 182 197 237 254 -250 -251 -252 -253 -260 -270 -271 -272 -273 -278 -281 -282 -283 -284 0 
-216 137 181 214 254 -250 -251 -252 -253 -260 -270 -271 -272 -273 -278 -281 -282 -283 -284 0 
-217 -218 -4 43 91 254 -250 -251 -252 -253 -260 -270 -271 -272 -273 -278 -281 -282 -283 -284 0 
-119 -1 -143 6 115 254 -250 -251 -252 -253 -260 -270 -271 -272 -273 -278 -281 -282 -283 -284 0 
-65 -4 43 91 -219 145 155 164 169 170 191 202 204 227 228 230 254 -250 -251 -252 -253 -260 -270 -271 -272 -273 -278 -281 -282 -283 -284 0 
-165 102 108 144 245 254 -250 -251 -252 -253 -260 -270 -271 -272 -273 -278 -281 -282 -283 -284 0 
-42 -4 43 91 -219 145 155 164 169 170 191 202 204 227 228 230 254 -250 -251 -252 -253 -260 -270 -271 -272 -273 -278 -281 -282 -283 -284 0 
-220 95 128 140 173 180 198 212 223 254 -250 -251 -252 -253 -260 -270 -271 -272 -273 -278 -281 -282 -283 -284 0 
-221 26 99 194 244 254 -250 -251 -252 -253 -260 -270 -271 -272 -273 -278 -281 -282 -283 -284 0 
-12 53 142 254 -250 -251 -252 -253 -260 -270 -271 -272 -273 -278 -281 -282 -283 -284 0 
-10 -115 6 143 254 -250 -251 -252 -253 -260 -270 -271 -272 -273 -278 -281 -282 -283 -284 0 
-71 -98 96 235 -4 43 91 254 -250 -251 -252 -253 -260 -270 -271 -272 -273 -278 -281 -282 -283 -284 0 
-222 208 213 254 -250 -251 -252 -253 -260 -270 -271 -272 -273 -278 -281 -282 -283 -284 0 
-10 -6 115 143 254 -250 -251 -252 -253 -260 -270 -271 -272 -273 -278 -281 -282 -283 -284 0 
-26 99 194 221 244 254 -250 -251 -252 -253 -260 -270 -271 -272 -273 -278 -281 -282 -283 -284 0 
-90 254 -250 -251 -252 -253 -260 -270 -271 -272 -273 -278 -281 -282 -283 -284 0 
-21 124 -223 95 128 140 173 180 198 212 220 254 -250 -251 -252 -253 -260 -270 -271 -272 -273 -278 -281 -282 -283 -284 0 
-210 106 130 209 211 231 254 -250 -251 -252 -253 -260 -270 -271 -272 -273 -278 -281 -282 -283 -284 0 
-82 51 56 254 -250 -251 -252 -253 -260 -270 -271 -272 -273 -278 -281 -282 -283 -284 0 
-76 89 -4 43 91 254 -250 -251 -252 -253 -260 -270 -271 -272 -273 -278 -281 -282 -283 -284 0 
-57 92 126 176 -43 4 91 254 -250 -251 -252 -253 -260 -270 -271 -272 -273 -278 -281 -282 -283 -284 0 
-2 280 -255 -256 0 
-124 21 -63 24 109 110 123 135 238 -224 254 -250 -251 -252 -253 -260 -270 -271 -272 -273 -278 -281 -282 -283 -284 0 
-21 124 -223 95 128 140 173 180 198 212 220 254 -250 -251 -252 -253 -260 -270 -271 -272 -273 -278 -281 -282 -283 -284 0 
-1 -4 43 91 -3 -2 278 -250 -251 -252 -253 -254 -260 -270 -271 -272 -273 -281 -282 -283 -284 0 
-1 -2 -6 115 143 275 -274 -276 -277 0 
-144 102 108 165 245 281 -250 -251 -252 -253 -254 -260 -270 -271 -272 -273 -278 -282 -283 -284 0 
-1 -2 -91 4 43 -225 201 -226 113 156 157 282 -250 -251 -252 -253 -254 -260 -270 -271 -272 -273 -278 -281 -283 -284 0 
-1 -2 -3 -4 43 91 -5 33 38 80 252 -250 -251 -253 -254 -260 -270 -271 -272 -273 -278 -281 -282 -283 -284 0 
-1 -6 115 143 250 -251 -252 -253 -254 -260 -270 -271 -272 -273 -278 -281 -282 -283 -284 0 
-1 -6 115 143 283 -250 -251 -252 -253 -254 -260 -270 -271 -272 -273 -278 -281 -282 -284 0 
-1 -2 -4 43 91 -3 -5 33 38 80 273 -250 -251 -252 -253 -254 -260 -270 -271 -272 -278 -281 -282 -283 -284 0 
-1 -2 -143 6 115 253 -250 -251 -252 -254 -260 -270 -271 -272 -273 -278 -281 -282 -283 -284 0 
-1 -2 -143 6 115 251 -250 -252 -253 -254 -260 -270 -271 -272 -273 -278 -281 -282 -283 -284 0 
-2 -143 6 115 284 -250 -251 -252 -253 -254 -260 -270 -271 -272 -273 -278 -281 -282 -283 0 
-1 -2 -3 -4 43 91 -5 33 38 80 271 -250 -251 -252 -253 -254 -260 -270 -272 -273 -278 -281 -282 -283 -284 0 
-1 -2 -143 6 115 260 -250 -251 -252 -253 -254 -270 -271 -272 -273 -278 -281 -282 -283 -284 0 
-6 115 143 251 -250 -252 -253 -254 -260 -270 -271 -272 -273 -278 -281 -282 -283 -284 0 
-1 -2 -3 -4 43 91 -227 145 155 164 169 170 191 202 204 219 228 230 273 -250 -251 -252 -253 -254 -260 -270 -271 -272 -278 -281 -282 -283 -284 0 
-1 -2 -3 -4 43 91 -145 155 164 169 170 191 202 204 219 227 228 230 283 -250 -251 -252 -253 -254 -260 -270 -271 -272 -273 -278 -281 -282 -284 0 
-1 -2 -143 6 115 284 -250 -251 -252 -253 -254 -260 -270 -271 -272 -273 -278 -281 -282 -283 0 
-1 -2 -3 -4 43 91 -145 155 164 169 170 191 202 204 219 227 228 230 253 -250 -251 -252 -254 -260 -270 -271 -272 -273 -278 -281 -282 -283 -284 0 
-1 -2 -3 -4 43 91 -228 145 155 164 169 170 191 202 204 219 227 230 271 -250 -251 -252 -253 -254 -260 -270 -272 -273 -278 -281 -282 -283 -284 0 
-1 -2 -143 6 115 252 -250 -251 -253 -254 -260 -270 -271 -272 -273 -278 -281 -282 -283 -284 0 
-144 102 108 165 245 275 -274 -276 -277 0 
-1 -2 -6 115 143 281 -250 -251 -252 -253 -254 -260 -270 -271 -272 -273 -278 -282 -283 -284 0 
-1 -229 60 68 282 -250 -251 -252 -253 -254 -260 -270 -271 -272 -273 -278 -281 -283 -284 0 
-1 -2 -3 -143 6 115 283 -250 -251 -252 -253 -254 -260 -270 -271 -272 -273 -278 -281 -282 -284 0 
-1 -2 -3 -4 43 91 -5 33 38 80 251 -250 -252 -253 -254 -260 -270 -271 -272 -273 -278 -281 -282 -283 -284 0 
-1 -2 -143 6 115 278 -250 -251 -252 -253 -254 -260 -270 -271 -272 -273 -281 -282 -283 -284 0 
-1 -2 -3 -4 43 91 -5 33 38 80 273 -250 -251 -252 -253 -254 -260 -270 -271 -272 -278 -281 -282 -283 -284 0 
-1 -2 -3 -6 115 143 253 -250 -251 -252 -254 -260 -270 -271 -272 -273 -278 -281 -282 -283 -284 0 
-1 -2 -3 -4 43 91 -5 33 38 80 260 -250 -251 -252 -253 -254 -270 -271 -272 -273 -278 -281 -282 -283 -284 0 
-1 -4 43 91 -2 -230 145 155 164 169 170 191 202 204 219 227 228 271 -250 -251 -252 -253 -254 -260 -270 -272 -273 -278 -281 -282 -283 -284 0 
-1 -4 43 91 -3 -2 273 -250 -251 -252 -253 -254 -260 -270 -271 -272 -278 -281 -282 -283 -284 0 
-1 -4 43 91 -3 -2 283 -250 -251 -252 -253 -254 -260 -270 -271 -272 -273 -278 -281 -282 -284 0 
-127 55 206 240 -4 43 91 -52 15 30 47 97 167 168 172 200 203 207 254 -250 -251 -252 -253 -260 -270 -271 -272 -273 -278 -281 -282 -283 -284 0 
-80 5 33 38 -91 4 43 -81 254 -250 -251 -252 -253 -260 -270 -271 -272 -273 -278 -281 -282 -283 -284 0 
-100 59 148 153 -231 106 130 209 210 211 254 -250 -251 -252 -253 -260 -270 -271 -272 -273 -278 -281 -282 -283 -284 0 
-232 8 -43 4 91 254 -250 -251 -252 -253 -260 -270 -271 -272 -273 -278 -281 -282 -283 -284 0 
-233 11 32 41 83 177 254 -250 -251 -252 -253 -260 -270 -271 -272 -273 -278 -281 -282 -283 -284 0 
-234 85 -43 4 91 254 -250 -251 -252 -253 -260 -270 -271 -272 -273 -278 -281 -282 -283 -284 0 
-235 96 98 254 -250 -251 -252 -253 -260 -270 -271 -272 -273 -278 -281 -282 -283 -284 0 
-14 104 112 184 236 242 254 -250 -251 -252 -253 -260 -270 -271 -272 -273 -278 -281 -282 -283 -284 0 
-205 254 -250 -251 -252 -253 -260 -270 -271 -272 -273 -278 -281 -282 -283 -284 0 
-63 24 109 110 123 135 238 254 -250 -251 -252 -253 -260 -270 -271 -272 -273 -278 -281 -282 -283 -284 0 
-42 254 -250 -251 -252 -253 -260 -270 -271 -272 -273 -278 -281 -282 -283 -284 0 
-236 14 104 112 184 242 254 -250 -251 -252 -253 -260 -270 -271 -272 -273 -278 -281 -282 -283 -284 0 
-40 131 166 182 197 215 237 254 -250 -251 -252 -253 -260 -270 -271 -272 -273 -278 -281 -282 -283 -284 0 
-65 254 -250 -251 -252 -253 -260 -270 -271 -272 -273 -278 -281 -282 -283 -284 0 
-98 96 235 254 -250 -251 -252 -253 -260 -270 -271 -272 -273 -278 -281 -282 -283 -284 0 
-237 40 131 166 182 197 215 254 -250 -251 -252 -253 -260 -270 -271 -272 -273 -278 -281 -282 -283 -284 0 
-238 24 63 109 110 123 135 254 -250 -251 -252 -253 -260 -270 -271 -272 -273 -278 -281 -282 -283 -284 0 
-239 20 111 114 190 254 -250 -251 -252 -253 -260 -270 -271 -272 -273 -278 -281 -282 -283 -284 0 
-56 51 82 254 -250 -251 -252 -253 -260 -270 -271 -272 -273 -278 -281 -282 -283 -284 0 
-240 55 127 206 254 -250 -251 -252 -253 -260 -270 -271 -272 -273 -278 -281 -282 -283 -284 0 
-241 25 254 -250 -251 -252 -253 -260 -270 -271 -272 -273 -278 -281 -282 -283 -284 0 
-53 12 142 254 -250 -251 -252 -253 -260 -270 -271 -272 -273 -278 -281 -282 -283 -284 0 
-242 14 104 112 184 236 254 -250 -251 -252 -253 -260 -270 -271 -272 -273 -278 -281 -282 -283 -284 0 
-53 12 142 254 -250 -251 -252 -253 -260 -270 -271 -272 -273 -278 -281 -282 -283 -284 0 
-243 23 37 186 -192 -4 43 91 254 -250 -251 -252 -253 -260 -270 -271 -272 -273 -278 -281 -282 -283 -284 0 
-10 -143 6 115 254 -250 -251 -252 -253 -260 -270 -271 -272 -273 -278 -281 -282 -283 -284 0 
-126 57 92 176 -244 26 99 194 221 254 -250 -251 -252 -253 -260 -270 -271 -272 -273 -278 -281 -282 -283 -284 0 
-245 102 108 144 165 284 -250 -251 -252 -253 -254 -260 -270 -271 -272 -273 -278 -281 -282 -283 0 
-246 -247 122 254 -250 -251 -252 -253 -260 -270 -271 -272 -273 -278 -281 -282 -283 -284 0 
-248 254 -250 -251 -252 -253 -260 -270 -271 -272 -273 -278 -281 -282 -283 -284 0 
-94 67 -249 254 -250 -251 -252 -253 -260 -270 -271 -272 -273 -278 -281 -282 -283 -284 0 
